29
[-1, 29, 67, 75, 0, 0, 14, 10, 79, 100, 0, 0, 24, 0, 58, 2, 96, 58, 81, 2, 0, 0, 0, 0, 0, 63, 16, 57, 41, 
29, -1, 0, 49, 0, 0, 65, 85, 4, 99, 0, 0, 24, 13, 0, 10, 0, 40, 0, 42, 38, 86, 6, 0, 0, 49, 99, 0, 16, 
67, 0, -1, 0, 0, 18, 0, 0, 26, 26, 88, 40, 90, 48, 95, 0, 73, 48, 0, 0, 9, 61, 9, 30, 0, 0, 0, 34, 84, 
75, 49, 0, -1, 0, 30, 13, 84, 0, 0, 83, 0, 54, 0, 0, 23, 0, 0, 0, 28, 89, 74, 0, 18, 0, 0, 64, 0, 0, 
0, 0, 0, 0, -1, 0, 0, 95, 70, 34, 0, 0, 0, 0, 39, 67, 0, 9, 8, 88, 55, 0, 59, 0, 0, 0, 0, 29, 86, 
0, 0, 18, 30, 0, -1, 0, 0, 33, 56, 0, 21, 96, 0, 0, 5, 32, 21, 50, 0, 0, 81, 15, 0, 54, 0, 21, 0, 0, 
14, 65, 0, 13, 0, 0, -1, 61, 80, 53, 44, 0, 0, 0, 22, 25, 54, 24, 0, 0, 94, 52, 38, 26, 63, 0, 0, 0, 0, 
10, 85, 0, 84, 95, 0, 61, -1, 29, 0, 0, 0, 0, 0, 0, 34, 0, 0, 97, 0, 52, 0, 83, 0, 36, 58, 0, 19, 0, 
79, 4, 26, 0, 70, 33, 80, 29, -1, 26, 0, 17, 46, 80, 0, 52, 20, 0, 48, 0, 25, 0, 24, 23, 52, 31, 0, 4, 34, 
100, 99, 26, 0, 34, 56, 53, 0, 26, -1, 4, 0, 78, 0, 0, 0, 0, 18, 0, 23, 0, 61, 0, 59, 97, 0, 0, 0, 44, 
0, 0, 88, 83, 0, 0, 44, 0, 0, 4, -1, 0, 0, 81, 0, 66, 77, 0, 0, 0, 67, 0, 0, 98, 24, 68, 85, 48, 97, 
0, 0, 40, 0, 0, 21, 0, 0, 17, 0, 0, -1, 10, 27, 19, 0, 0, 82, 81, 0, 97, 13, 35, 20, 14, 0, 60, 26, 79, 
24, 24, 90, 54, 0, 96, 0, 0, 46, 78, 0, 10, -1, 2, 5, 0, 16, 32, 0, 0, 22, 0, 0, 0, 0, 0, 15, 52, 76, 
0, 13, 48, 0, 0, 0, 0, 0, 80, 0, 81, 27, 2, -1, 80, 18, 0, 72, 73, 0, 56, 21, 63, 0, 0, 0, 33, 83, 51, 
58, 0, 95, 0, 39, 0, 22, 0, 0, 0, 0, 19, 5, 80, -1, 72, 4, 63, 0, 0, 9, 56, 0, 85, 29, 0, 56, 0, 17, 
2, 10, 0, 23, 67, 5, 25, 34, 52, 0, 66, 0, 0, 18, 72, -1, 46, 0, 0, 0, 74, 0, 0, 0, 0, 0, 0, 41, 0, 
96, 0, 73, 0, 0, 32, 54, 0, 20, 0, 77, 0, 16, 0, 4, 46, -1, 0, 0, 0, 37, 0, 0, 85, 21, 0, 0, 0, 51, 
58, 40, 48, 0, 9, 21, 24, 0, 0, 18, 0, 82, 32, 72, 63, 0, 0, -1, 77, 1, 17, 0, 0, 37, 0, 0, 54, 0, 0, 
81, 0, 0, 0, 8, 50, 0, 97, 48, 0, 0, 81, 0, 73, 0, 0, 0, 77, -1, 0, 52, 0, 0, 0, 0, 45, 0, 0, 72, 
2, 42, 0, 28, 88, 0, 0, 0, 0, 23, 0, 0, 0, 0, 0, 0, 0, 1, 0, -1, 8, 0, 86, 0, 0, 97, 53, 21, 70, 
0, 38, 9, 89, 55, 0, 94, 52, 25, 0, 67, 97, 22, 56, 9, 74, 37, 17, 52, 8, -1, 0, 16, 0, 0, 66, 40, 24, 51, 
0, 86, 61, 74, 0, 81, 52, 0, 0, 61, 0, 13, 0, 21, 56, 0, 0, 0, 0, 0, 0, -1, 97, 96, 13, 99, 0, 0, 0, 
0, 6, 9, 0, 59, 15, 38, 83, 24, 0, 0, 35, 0, 63, 0, 0, 0, 0, 0, 86, 16, 97, -1, 0, 0, 0, 0, 0, 0, 
0, 0, 30, 18, 0, 0, 26, 0, 23, 59, 98, 20, 0, 0, 85, 0, 85, 37, 0, 0, 0, 96, 0, -1, 33, 84, 0, 2, 9, 
0, 0, 0, 0, 0, 54, 63, 36, 52, 97, 24, 14, 0, 0, 29, 0, 21, 0, 0, 0, 0, 13, 0, 33, -1, 0, 0, 69, 74, 
63, 49, 0, 0, 0, 0, 0, 58, 31, 0, 68, 0, 0, 0, 0, 0, 0, 0, 45, 97, 66, 99, 0, 84, 0, -1, 0, 0, 0, 
16, 99, 0, 64, 0, 21, 0, 0, 0, 0, 85, 60, 15, 33, 56, 0, 0, 54, 0, 53, 40, 0, 0, 0, 0, 0, -1, 0, 0, 
57, 0, 34, 0, 29, 0, 0, 19, 4, 0, 48, 26, 52, 83, 0, 41, 0, 0, 0, 21, 24, 0, 0, 2, 69, 0, 0, -1, 78, 
41, 16, 84, 0, 86, 0, 0, 0, 34, 44, 97, 79, 76, 51, 17, 0, 51, 0, 72, 70, 51, 0, 0, 9, 74, 0, 0, 78, -1]